c musae-wiki:chameleon: The data was collected from the English Wikipedia (December 2018). https://snap.stanford.edu/data/wikipedia-article-networks.html
p edge 200 245
e 1 91
e 2 150
e 3 30
e 4 36
e 5 153
e 6 131
e 6 136
e 6 70
e 7 91
e 8 71
e 9 91
e 10 38
e 10 174
e 11 42
e 11 143
e 11 51
e 12 187
e 13 78
e 14 53
e 14 185
e 15 78
e 16 183
e 16 41
e 16 163
e 17 107
e 18 31
e 19 189
e 19 114
e 19 91
e 19 159
e 19 137
e 20 126
e 21 68
e 21 124
e 21 62
e 21 29
e 21 65
e 21 78
e 21 164
e 21 195
e 22 103
e 23 200
e 24 107
e 24 56
e 25 199
e 25 174
e 26 55
e 27 99
e 27 73
e 27 122
e 28 166
e 29 110
e 29 112
e 29 193
e 29 80
e 29 116
e 29 155
e 29 198
e 30 168
e 30 51
e 31 123
e 31 128
e 31 121
e 31 116
e 31 88
e 31 73
e 31 47
e 32 177
e 33 114
e 34 141
e 35 38
e 35 126
e 36 113
e 36 185
e 36 98
e 36 181
e 36 40
e 37 44
e 38 39
e 38 48
e 38 187
e 38 141
e 39 111
e 39 122
e 40 188
e 41 153
e 42 108
e 42 56
e 42 86
e 42 91
e 43 122
e 43 200
e 43 111
e 43 147
e 44 125
e 44 85
e 45 144
e 46 149
e 46 176
e 46 170
e 46 48
e 46 192
e 46 135
e 46 190
e 47 161
e 47 109
e 47 83
e 47 162
e 47 54
e 48 97
e 48 140
e 48 78
e 48 166
e 49 119
e 49 50
e 49 61
e 49 122
e 50 74
e 50 174
e 51 137
e 52 80
e 52 123
e 52 180
e 52 196
e 53 84
e 55 168
e 56 111
e 56 92
e 57 111
e 57 79
e 58 146
e 59 75
e 59 173
e 60 139
e 61 138
e 61 153
e 61 129
e 63 174
e 63 166
e 64 189
e 64 71
e 64 160
e 64 90
e 66 118
e 66 91
e 67 144
e 67 176
e 68 166
e 68 127
e 68 174
e 68 122
e 69 174
e 70 176
e 72 193
e 72 105
e 72 126
e 73 84
e 74 114
e 74 111
e 75 77
e 75 133
e 76 89
e 76 110
e 77 82
e 77 175
e 77 165
e 78 172
e 78 197
e 79 84
e 80 174
e 81 84
e 84 157
e 84 194
e 84 105
e 85 196
e 87 122
e 89 100
e 89 174
e 90 91
e 91 117
e 91 173
e 92 147
e 92 167
e 92 111
e 93 153
e 94 196
e 95 151
e 95 189
e 96 153
e 97 154
e 98 150
e 100 198
e 100 189
e 101 153
e 101 169
e 101 176
e 102 153
e 103 160
e 103 133
e 103 106
e 104 118
e 105 199
e 105 166
e 106 113
e 107 132
e 108 147
e 108 128
e 109 153
e 110 174
e 113 118
e 115 187
e 115 119
e 117 147
e 119 158
e 120 152
e 122 157
e 122 145
e 126 159
e 127 196
e 127 177
e 127 195
e 129 147
e 130 169
e 132 176
e 134 196
e 137 151
e 138 191
e 139 188
e 142 146
e 142 148
e 142 185
e 145 178
e 147 179
e 150 186
e 150 156
e 152 159
e 153 178
e 153 187
e 166 189
e 168 182
e 171 174
e 178 198
e 178 184
e 184 198
e 185 187
l 92
t 26 58
